(set-info :source |printed by MathSAT|)
(declare-fun |!{$(in_main#0)<N>}| () Int)
(declare-fun |!{$(in_main#0)<N>}.next| () Int)
(declare-fun |!{$(in_main#0)<j>}| () Int)
(declare-fun |!{$(in_main#0)<j>}.next| () Int)
(declare-fun |!{$(in_main#0)<k>}| () Int)
(declare-fun |!{$(in_main#0)<k>}.next| () Int)
(declare-fun |!{$(in_main#0)<k#1>}| () Int)
(declare-fun |!{$(in_main#0)<k#1>}.next| () Int)
(declare-fun |!{$(in_main#0)<l>}| () Int)
(declare-fun |!{$(in_main#0)<l>}.next| () Int)
(declare-fun |!{$(in_main#0)<swapped>}| () Int)
(declare-fun |!{$(in_main#0)<swapped>}.next| () Int)
(declare-fun |!{$(in_main#0)<array.1>}| () (Array Int Int))
(declare-fun |!{$(in_main#0)<array.1>}.next| () (Array Int Int))
(declare-fun |!{$(in_main#0)<$(in___VERIFIER_nondet_int#0)<h#<__VERIFIER_nondet_int.return>>>}| () Int)
(declare-fun |!{$(in_main#0)<$(in___VERIFIER_nondet_int#2)<h#<__VERIFIER_nondet_int.return>>>}| () Int)
(declare-fun !pc () Int)
(declare-fun !pc.next () Int)
(declare-fun |%{$(in_main#0)<j>}#1| () Int)
(declare-fun |%{$(in_main#0)<k#1>}#1| () Int)
(declare-fun |%{$(in_main#0)<l>}#1| () Int)
(declare-fun |%{$(in_main#0)<swapped>}#1| () Int)
(declare-fun |%{$(in_main#0)<array.1>}#1| () (Array Int Int))
(declare-fun |%{$(in_main#0)<swapped>}#2| () Int)
(declare-fun |%{$(in_main#0)<array.1>}#3| () (Array Int Int))
(define-fun .def_37 () Int (! !pc :next !pc.next))
(define-fun .def_40 () Bool (! (= .def_37 2) :init true))
(define-fun .def_267 () Bool (= .def_37 42))
(define-fun .def_244 () Bool (= !pc.next 62))
(define-fun .def_270 () Bool (and .def_244 .def_267))
(define-fun .def_263 () Bool (= |!{$(in_main#0)<swapped>}.next| 1))
(define-fun .def_16 () Int (! |!{$(in_main#0)<l>}| :next |!{$(in_main#0)<l>}.next|))
(define-fun .def_104 () Bool (= .def_16 |!{$(in_main#0)<l>}.next|))
(define-fun .def_14 () Int (! |!{$(in_main#0)<k#1>}| :next |!{$(in_main#0)<k#1>}.next|))
(define-fun .def_89 () Bool (= .def_14 |!{$(in_main#0)<k#1>}.next|))
(define-fun .def_12 () Int (! |!{$(in_main#0)<k>}| :next |!{$(in_main#0)<k>}.next|))
(define-fun .def_87 () Bool (= .def_12 |!{$(in_main#0)<k>}.next|))
(define-fun .def_10 () Int (! |!{$(in_main#0)<j>}| :next |!{$(in_main#0)<j>}.next|))
(define-fun .def_85 () Bool (= .def_10 |!{$(in_main#0)<j>}.next|))
(define-fun .def_8 () Int (! |!{$(in_main#0)<N>}| :next |!{$(in_main#0)<N>}.next|))
(define-fun .def_84 () Bool (= .def_8 |!{$(in_main#0)<N>}.next|))
(define-fun .def_86 () Bool (and .def_84 .def_85))
(define-fun .def_88 () Bool (and .def_86 .def_87))
(define-fun .def_90 () Bool (and .def_88 .def_89))
(define-fun .def_237 () Bool (and .def_90 .def_104))
(define-fun .def_264 () Bool (and .def_237 .def_263))
(define-fun .def_20 () (Array Int Int) (! |!{$(in_main#0)<array.1>}| :next |!{$(in_main#0)<array.1>}.next|))
(define-fun .def_97 () Bool (= .def_20 |!{$(in_main#0)<array.1>}.next|))
(define-fun .def_265 () Bool (and .def_97 .def_264))
(define-fun .def_249 () Bool (<= .def_8 .def_12))
(define-fun .def_266 () Bool (and .def_249 .def_265))
(define-fun .def_271 () Bool (and .def_266 .def_270))
(define-fun .def_74 () Bool (= !pc.next 42))
(define-fun .def_268 () Bool (and .def_74 .def_267))
(define-fun .def_251 () (Array Int Int) (store .def_20 .def_12 |!{$(in_main#0)<$(in___VERIFIER_nondet_int#2)<h#<__VERIFIER_nondet_int.return>>>}|))
(define-fun .def_260 () Bool (= |!{$(in_main#0)<array.1>}.next| .def_251))
(define-fun .def_253 () Int (* (- 1) |!{$(in_main#0)<k>}.next|))
(define-fun .def_254 () Int (+ .def_12 .def_253))
(define-fun .def_255 () Bool (= .def_254 (- 1)))
(define-fun .def_256 () Bool (and .def_86 .def_255))
(define-fun .def_257 () Bool (and .def_89 .def_256))
(define-fun .def_258 () Bool (and .def_104 .def_257))
(define-fun .def_18 () Int (! |!{$(in_main#0)<swapped>}| :next |!{$(in_main#0)<swapped>}.next|))
(define-fun .def_95 () Bool (= .def_18 |!{$(in_main#0)<swapped>}.next|))
(define-fun .def_259 () Bool (and .def_95 .def_258))
(define-fun .def_261 () Bool (and .def_259 .def_260))
(define-fun .def_250 () Bool (not .def_249))
(define-fun .def_262 () Bool (and .def_250 .def_261))
(define-fun .def_269 () Bool (and .def_262 .def_268))
(define-fun .def_272 () Bool (or .def_269 .def_271))
(define-fun .def_241 () Bool (= .def_37 71))
(define-fun .def_245 () Bool (and .def_241 .def_244))
(define-fun .def_238 () Bool (and .def_95 .def_237))
(define-fun .def_239 () Bool (and .def_97 .def_238))
(define-fun .def_199 () Bool (<= 0 .def_10))
(define-fun .def_224 () Bool (not .def_199))
(define-fun .def_240 () Bool (and .def_224 .def_239))
(define-fun .def_246 () Bool (and .def_240 .def_245))
(define-fun .def_192 () Bool (= !pc.next 71))
(define-fun .def_242 () Bool (and .def_192 .def_241))
(define-fun .def_233 () Bool (= |!{$(in_main#0)<array.1>}.next| |%{$(in_main#0)<array.1>}#3|))
(define-fun .def_231 () Bool (= |!{$(in_main#0)<swapped>}.next| |%{$(in_main#0)<swapped>}#2|))
(define-fun .def_172 () Int (* (- 1) |!{$(in_main#0)<j>}.next|))
(define-fun .def_225 () Int (+ .def_10 .def_172))
(define-fun .def_226 () Bool (= .def_225 1))
(define-fun .def_227 () Bool (and .def_84 .def_226))
(define-fun .def_228 () Bool (and .def_87 .def_227))
(define-fun .def_229 () Bool (and .def_89 .def_228))
(define-fun .def_230 () Bool (and .def_104 .def_229))
(define-fun .def_232 () Bool (and .def_230 .def_231))
(define-fun .def_234 () Bool (and .def_232 .def_233))
(define-fun .def_200 () Int (select .def_20 .def_10))
(define-fun .def_201 () Int (+ .def_10 1))
(define-fun .def_202 () Int (select .def_20 .def_201))
(define-fun .def_205 () (Array Int Int) (store .def_20 .def_10 .def_202))
(define-fun .def_206 () (Array Int Int) (store .def_205 .def_201 .def_200))
(define-fun .def_218 () Bool (= .def_206 |%{$(in_main#0)<array.1>}#3|))
(define-fun .def_212 () Bool (= |%{$(in_main#0)<swapped>}#2| 1))
(define-fun .def_203 () Bool (<= .def_200 .def_202))
(define-fun .def_204 () Bool (not .def_203))
(define-fun .def_214 () Bool (and .def_204 .def_212))
(define-fun .def_220 () Bool (and .def_214 .def_218))
(define-fun .def_217 () Bool (= .def_20 |%{$(in_main#0)<array.1>}#3|))
(define-fun .def_211 () Bool (= .def_18 |%{$(in_main#0)<swapped>}#2|))
(define-fun .def_213 () Bool (and .def_203 .def_211))
(define-fun .def_219 () Bool (and .def_213 .def_217))
(define-fun .def_221 () Bool (or .def_219 .def_220))
(define-fun .def_235 () Bool (and .def_221 .def_234))
(define-fun .def_236 () Bool (and .def_199 .def_235))
(define-fun .def_243 () Bool (and .def_236 .def_242))
(define-fun .def_247 () Bool (or .def_243 .def_246))
(define-fun .def_190 () Bool (= .def_37 62))
(define-fun .def_161 () Bool (= !pc.next 99))
(define-fun .def_195 () Bool (and .def_161 .def_190))
(define-fun .def_183 () Bool (= |!{$(in_main#0)<k#1>}.next| 0))
(define-fun .def_184 () Bool (and .def_88 .def_183))
(define-fun .def_185 () Bool (and .def_104 .def_184))
(define-fun .def_186 () Bool (and .def_95 .def_185))
(define-fun .def_187 () Bool (and .def_97 .def_186))
(define-fun .def_168 () Bool (= .def_18 0))
(define-fun .def_188 () Bool (and .def_168 .def_187))
(define-fun .def_196 () Bool (and .def_188 .def_195))
(define-fun .def_193 () Bool (and .def_190 .def_192))
(define-fun .def_179 () Bool (= |!{$(in_main#0)<swapped>}.next| 0))
(define-fun .def_173 () Int (+ .def_8 .def_172))
(define-fun .def_174 () Bool (= .def_173 2))
(define-fun .def_175 () Bool (and .def_84 .def_174))
(define-fun .def_176 () Bool (and .def_87 .def_175))
(define-fun .def_177 () Bool (and .def_89 .def_176))
(define-fun .def_178 () Bool (and .def_104 .def_177))
(define-fun .def_180 () Bool (and .def_178 .def_179))
(define-fun .def_181 () Bool (and .def_97 .def_180))
(define-fun .def_169 () Bool (not .def_168))
(define-fun .def_182 () Bool (and .def_169 .def_181))
(define-fun .def_194 () Bool (and .def_182 .def_193))
(define-fun .def_197 () Bool (or .def_194 .def_196))
(define-fun .def_153 () Bool (= .def_37 107))
(define-fun .def_162 () Bool (and .def_153 .def_161))
(define-fun .def_145 () Int (* (- 1) |!{$(in_main#0)<k#1>}.next|))
(define-fun .def_146 () Int (+ .def_14 .def_145))
(define-fun .def_147 () Bool (= .def_146 (- 1)))
(define-fun .def_148 () Bool (and .def_88 .def_147))
(define-fun .def_149 () Bool (and .def_104 .def_148))
(define-fun .def_150 () Bool (and .def_95 .def_149))
(define-fun .def_151 () Bool (and .def_97 .def_150))
(define-fun .def_119 () Bool (<= .def_8 .def_16))
(define-fun .def_152 () Bool (and .def_119 .def_151))
(define-fun .def_163 () Bool (and .def_152 .def_162))
(define-fun .def_111 () Bool (= !pc.next 107))
(define-fun .def_158 () Bool (and .def_111 .def_153))
(define-fun .def_91 () Int (* (- 1) |!{$(in_main#0)<l>}.next|))
(define-fun .def_138 () Int (+ .def_16 .def_91))
(define-fun .def_139 () Bool (= .def_138 (- 1)))
(define-fun .def_140 () Bool (and .def_90 .def_139))
(define-fun .def_141 () Bool (and .def_95 .def_140))
(define-fun .def_142 () Bool (and .def_97 .def_141))
(define-fun .def_122 () Int (select .def_20 .def_16))
(define-fun .def_121 () Int (select .def_20 .def_14))
(define-fun .def_123 () Bool (<= .def_121 .def_122))
(define-fun .def_124 () Int (ite .def_123 1 0))
(define-fun .def_125 () Bool (= .def_124 0))
(define-fun .def_126 () Bool (not .def_125))
(define-fun .def_143 () Bool (and .def_126 .def_142))
(define-fun .def_120 () Bool (not .def_119))
(define-fun .def_144 () Bool (and .def_120 .def_143))
(define-fun .def_159 () Bool (and .def_144 .def_158))
(define-fun .def_155 () Bool (= !pc.next 127))
(define-fun .def_156 () Bool (and .def_153 .def_155))
(define-fun .def_130 () Bool (and .def_84 .def_125))
(define-fun .def_131 () Bool (and .def_85 .def_130))
(define-fun .def_132 () Bool (and .def_87 .def_131))
(define-fun .def_133 () Bool (and .def_89 .def_132))
(define-fun .def_134 () Bool (and .def_104 .def_133))
(define-fun .def_135 () Bool (and .def_95 .def_134))
(define-fun .def_136 () Bool (and .def_97 .def_135))
(define-fun .def_137 () Bool (and .def_120 .def_136))
(define-fun .def_157 () Bool (and .def_137 .def_156))
(define-fun .def_160 () Bool (or .def_157 .def_159))
(define-fun .def_164 () Bool (or .def_160 .def_163))
(define-fun .def_114 () Bool (= !pc.next 0))
(define-fun .def_109 () Bool (= .def_37 99))
(define-fun .def_115 () Bool (and .def_109 .def_114))
(define-fun .def_79 () Int (* (- 1) .def_14))
(define-fun .def_80 () Int (+ .def_8 .def_79))
(define-fun .def_81 () Bool (<= .def_80 1))
(define-fun .def_100 () Bool (and .def_81 .def_84))
(define-fun .def_101 () Bool (and .def_85 .def_100))
(define-fun .def_102 () Bool (and .def_87 .def_101))
(define-fun .def_103 () Bool (and .def_89 .def_102))
(define-fun .def_105 () Bool (and .def_103 .def_104))
(define-fun .def_106 () Bool (and .def_95 .def_105))
(define-fun .def_107 () Bool (and .def_97 .def_106))
(define-fun .def_116 () Bool (and .def_107 .def_115))
(define-fun .def_112 () Bool (and .def_109 .def_111))
(define-fun .def_92 () Int (+ .def_14 .def_91))
(define-fun .def_93 () Bool (= .def_92 (- 1)))
(define-fun .def_94 () Bool (and .def_90 .def_93))
(define-fun .def_96 () Bool (and .def_94 .def_95))
(define-fun .def_98 () Bool (and .def_96 .def_97))
(define-fun .def_82 () Bool (not .def_81))
(define-fun .def_99 () Bool (and .def_82 .def_98))
(define-fun .def_113 () Bool (and .def_99 .def_112))
(define-fun .def_117 () Bool (or .def_113 .def_116))
(define-fun .def_75 () Bool (and .def_40 .def_74))
(define-fun .def_70 () Bool (= |!{$(in_main#0)<array.1>}.next| |%{$(in_main#0)<array.1>}#1|))
(define-fun .def_68 () Bool (= |!{$(in_main#0)<swapped>}.next| |%{$(in_main#0)<swapped>}#1|))
(define-fun .def_66 () Bool (= |!{$(in_main#0)<l>}.next| |%{$(in_main#0)<l>}#1|))
(define-fun .def_64 () Bool (= |!{$(in_main#0)<k#1>}.next| |%{$(in_main#0)<k#1>}#1|))
(define-fun .def_62 () Bool (= |!{$(in_main#0)<k>}.next| 0))
(define-fun .def_60 () Bool (= |!{$(in_main#0)<j>}.next| |%{$(in_main#0)<j>}#1|))
(define-fun .def_59 () Bool (= |!{$(in_main#0)<N>}.next| |!{$(in_main#0)<$(in___VERIFIER_nondet_int#0)<h#<__VERIFIER_nondet_int.return>>>}|))
(define-fun .def_61 () Bool (and .def_59 .def_60))
(define-fun .def_63 () Bool (and .def_61 .def_62))
(define-fun .def_65 () Bool (and .def_63 .def_64))
(define-fun .def_67 () Bool (and .def_65 .def_66))
(define-fun .def_69 () Bool (and .def_67 .def_68))
(define-fun .def_71 () Bool (and .def_69 .def_70))
(define-fun .def_54 () Bool (<= |!{$(in_main#0)<$(in___VERIFIER_nondet_int#0)<h#<__VERIFIER_nondet_int.return>>>}| 0))
(define-fun .def_55 () Bool (not .def_54))
(define-fun .def_56 () Int (ite .def_55 1 0))
(define-fun .def_57 () Bool (= .def_56 0))
(define-fun .def_58 () Bool (not .def_57))
(define-fun .def_72 () Bool (and .def_58 .def_71))
(define-fun .def_76 () Bool (and .def_72 .def_75))
(define-fun .def_118 () Bool (or .def_76 .def_117))
(define-fun .def_165 () Bool (or .def_118 .def_164))
(define-fun .def_198 () Bool (or .def_165 .def_197))
(define-fun .def_248 () Bool (or .def_198 .def_247))
(define-fun .def_273 () Bool (! (or .def_248 .def_272) :trans true))
(define-fun .def_166 () Bool (= .def_37 127))
(define-fun .def_274 () Bool (! (not .def_166) :invar-property 0 :invar-property-name ||))
(assert true)
